


































































































47 16 74 7 15 
60 63 21 8 24 
12 58 4 57 34 37 
9 49 55 52 53 
35 61 2 40 
66 31 10 23 5 
28 41 25 46 44 
43 64 33 32 50 
22 72 13 73 20 14 
75 56 17 67 71 
54 39 0 51 1 
68 6 45 26 
65 19 59 42 76 
69 36 30 38 27 
3 48 29 70 62 
11 18 
